p edge 72
e 0 7
e 0 16
e 0 32
e 1 13
e 1 26
e 1 54
e 1 65
e 2 11
e 2 14
e 2 20
e 2 23
e 2 55
e 3 19
e 3 22
e 3 30
e 3 33
e 3 52
e 3 61
e 4 5
e 4 17
e 4 24
e 4 28
e 4 31
e 4 34
e 5 11
e 5 22
e 5 24
e 5 31
e 5 61
e 5 64
e 6 27
e 6 69
e 7 16
e 7 17
e 7 34
e 7 43
e 7 53
e 8 28
e 8 50
e 8 56
e 9 33
e 9 42
e 9 44
e 9 47
e 10 35
e 10 46
e 10 48
e 10 49
e 11 20
e 11 37
e 11 55
e 11 64
e 11 68
e 12 13
e 12 15
e 12 30
e 12 35
e 12 45
e 12 59
e 12 62
e 13 15
e 13 26
e 13 30
e 13 40
e 13 65
e 14 20
e 14 23
e 14 38
e 14 58
e 14 62
e 15 35
e 15 46
e 15 65
e 16 18
e 16 53
e 17 31
e 17 34
e 17 43
e 17 67
e 18 53
e 18 60
e 19 30
e 19 45
e 19 52
e 20 38
e 20 39
e 20 63
e 20 68
e 21 26
e 21 29
e 21 40
e 21 47
e 21 66
e 22 31
e 22 33
e 22 44
e 22 61
e 23 45
e 23 52
e 23 55
e 23 62
e 24 28
e 24 51
e 24 64
e 25 36
e 25 41
e 25 43
e 25 67
e 26 29
e 26 40
e 26 54
e 27 39
e 27 68
e 27 69
e 28 34
e 28 50
e 28 51
e 28 56
e 28 70
e 29 54
e 29 66
e 30 33
e 30 40
e 30 45
e 31 44
e 31 67
e 32 41
e 32 43
e 33 40
e 33 44
e 33 47
e 34 70
e 35 46
e 35 49
e 35 59
e 36 67
e 36 71
e 37 64
e 37 68
e 38 58
e 38 63
e 39 63
e 39 68
e 40 47
e 41 43
e 42 44
e 42 47
e 42 71
e 43 67
e 44 67
e 44 71
e 45 52
e 45 62
e 46 48
e 46 65
e 47 66
e 49 57
e 50 60
e 50 70
e 51 56
e 51 64
e 51 69
e 52 55
e 52 61
e 53 70
e 55 61
e 56 69
e 57 58
e 57 59
e 58 59
e 58 62
e 59 62
e 60 70
e 64 68
e 64 69
e 67 71
e 68 69
c k 8
